12 40 6 10
14 7 12 5 17 10 14 3 6 2 7 6 3 13 13 4 9 20 11 12 7 12 3 10 3 14 12 14 17 7 11 5 7 12 8 5 7 19 19 3 
5.54 10.18 10.16 13.13 2.67 7.88 15.78 15.61 15.67 7.59 3.73 14.97 7.57 12.08 4.02 4.96 5.51 11.23 7.26 1.87 4.11 6.58 9.54 12.2 7.48 11.44 9.85 6.05 9.34 1.88 13.8 5.69 12.2 14.92 2.03 6.22 2.36 6.9 11.63 2.29 
10.57 3.99 7.48 5.95 6.28 13.36 4.21 12.88 13.78 14.76 6.97 2.06 2.82 5.02 1.71 12.78 13.7 11.37 7.13 9.37 5.24 7 12.89 3.64 12.51 6.08 13.58 15.57 3.34 8.92 9.03 4.38 3.24 2.17 9.57 3.99 4.33 8.43 1.86 10.29 
11.56 0.35 6 0.05 12.57 13.19 12.45 1.5 11.26 5.5 13.69 9.78 3.64 8.5 10.98 3.28 6.29 14.41 11.2 6.38 8.89 1.08 1.86 10.58 1.37 4.49 2.44 6.65 3.02 5.83 1.64 0.67 9.88 5.12 12.33 10.77 0.33 2.16 15.98 8.67 
3.84 6.81 12.9 10.57 3.33 9.4 5.57 14.2 0.9 8.88 10.41 11.66 4.9 2.22 14.47 9.94 2.62 5.26 0.74 3.01 8.49 1.79 15.83 5.58 7.52 8.55 14.24 14.54 3.52 3.02 2.84 15.13 3.44 4.44 5.48 9.07 2.91 4.78 11.84 8.12 
15.65 14.13 11.13 5.83 12.86 10.29 0.89 14.51 12 2.52 5.45 3.05 3.18 7.62 5.35 7.62 12.76 14.59 4.44 8.34 1.09 5.06 4.68 15.12 11.46 10.08 13.9 3.99 1.11 14.6 5.19 1.94 4.87 15.47 9.22 14.17 13.4 4.85 2.78 7.64 
3.4 5.24 13.44 3.3 0.54 0.55 14.11 10.63 0.55 12.75 15.49 14.08 4.61 13.8 1.78 14.13 9.27 0.38 8.18 9.89 0.46 4.85 12.06 14.91 2 5.05 13.93 1.39 14.3 7.27 7.39 5.29 14.65 10.6 3.79 1.71 0.47 8.18 14.06 7.4 
8 8 8 8 8 8 8 8 8 8 8 8 8 8 8 8 8 8 8 8 8 8 8 8 8 8 8 8 8 8 8 8 8 8 8 8 8 8 8 8 
6.27 5.08 14.73 2.97 2.27 12.3 0.42 15.2 3.53 14.34 0.3 12.09 12.12 2.07 0.39 9.69 14.95 7 3.72 4.84 5.31 10.74 13.39 8.9 3.08 6.86 1.59 7.49 8.61 4.29 7.67 0.34 13.03 13.94 14.65 14.72 7.8 2.56 15.16 4.62 
5.44 0.31 3.48 11.03 8.42 10.54 4.41 1.32 4.98 10.65 9.52 8.52 11.86 13.97 15.25 12.03 13.31 8.81 15.58 10.42 5.3 15.79 12.52 5.78 9.23 11.71 4.71 8.26 12.86 10.12 7.25 12.51 7.4 0.52 12.47 11.66 1.75 13.99 14.6 3.24 
15.63 4.17 10.7 10.06 11.53 14.36 10.73 0.6 2.46 11.58 1.51 15.82 9.97 6.51 6.38 1.74 13.04 4.11 10.95 10.91 6.8 2.12 13.96 2.18 7.05 3.04 0.57 2.36 0.94 6.77 13.07 9.34 0.59 14.11 7.09 8.75 2.91 15.72 1.96 5.13 
15.68 13.74 11.02 6.89 2.95 9.79 7.48 10.42 0.87 11.26 15.06 6.01 11.74 8.77 13.13 3.16 5.97 9 0.48 3.86 5.02 2.89 10.96 0.5 6.54 7.49 2.83 9.85 13.98 10.86 2.02 5.73 10.13 8.48 0.68 6.93 11.83 1.8 1.78 2.86 
9.19 8.32 8.36 15.5 15.81 10.45 5.45 10.74 6.54 8.48 8.07 8.79 7.71 12.52 2.62 11.32 11.38 15.88 6.41 5 9.78 7.56 8.5 6.94 0.01 4.33 6.88 1.33 13.17 13.99 12.13 4.45 3.89 5.49 8.65 15.45 9.72 8.13 5.99 11.32 
1 1 1 1 1 1 1 1 1 1 1 1 1 1 1 1 1 1 1 1 1 1 1 1 1 1 1 1 1 1 1 1 1 1 1 1 1 1 1 1 
1 1 1 1 1 1 1 1 1 1 1 1 1 1 1 1 1 1 1 1 1 1 1 1 1 1 1 1 1 1 1 1 1 1 1 1 1 1 1 1 
1 1 1 1 1 1 1 1 1 1 1 1 1 1 1 1 1 1 1 1 1 1 1 1 1 1 1 1 1 1 1 1 1 1 1 1 1 1 1 1 
1 1 1 1 1 1 1 1 1 1 1 1 1 1 1 1 1 1 1 1 1 1 1 1 1 1 1 1 1 1 1 1 1 1 1 1 1 1 1 1 
1 1 1 1 1 1 1 1 1 1 1 1 1 1 1 1 1 1 1 1 1 1 1 1 1 1 1 1 1 1 1 1 1 1 1 1 1 1 1 1 
1 1 1 1 1 1 1 1 1 1 1 1 1 1 1 1 1 1 1 1 1 1 1 1 1 1 1 1 1 1 1 1 1 1 1 1 1 1 1 1 
1 1 1 1 1 1 1 1 1 1 1 1 1 1 1 1 1 1 1 1 1 1 1 1 1 1 1 1 1 1 1 1 1 1 1 1 1 1 1 1 
1 1 1 1 1 1 1 1 1 1 1 1 1 1 1 1 1 1 1 1 1 1 1 1 1 1 1 1 1 1 1 1 1 1 1 1 1 1 1 1 
1 1 1 1 1 1 1 1 1 1 1 1 1 1 1 1 1 1 1 1 1 1 1 1 1 1 1 1 1 1 1 1 1 1 1 1 1 1 1 1 
1 1 1 1 1 1 1 1 1 1 1 1 1 1 1 1 1 1 1 1 1 1 1 1 1 1 1 1 1 1 1 1 1 1 1 1 1 1 1 1 
1 1 1 1 1 1 1 1 1 1 1 1 1 1 1 1 1 1 1 1 1 1 1 1 1 1 1 1 1 1 1 1 1 1 1 1 1 1 1 1 
1 1 1 1 1 1 1 1 1 1 1 1 1 1 1 1 1 1 1 1 1 1 1 1 1 1 1 1 1 1 1 1 1 1 1 1 1 1 1 1 
0.01 0.01 0.01 0.01 0.01 0.01 0.01 0.01 0.01 0.01 0.01 0.01 0.01 0.01 0.01 0.01 0.01 0.01 0.01 0.01 0.01 0.01 0.01 0.01 0.01 0.01 0.01 0.01 0.01 0.01 0.01 0.01 0.01 0.01 0.01 0.01 0.01 0.01 0.01 0.01 
0.02 0.02 0.02 0.02 0.02 0.02 0.02 0.02 0.02 0.02 0.02 0.02 0.02 0.02 0.02 0.02 0.02 0.02 0.02 0.02 0.02 0.02 0.02 0.02 0.02 0.02 0.02 0.02 0.02 0.02 0.02 0.02 0.02 0.02 0.02 0.02 0.02 0.02 0.02 0.02 
0.03 0.03 0.03 0.03 0.03 0.03 0.03 0.03 0.03 0.03 0.03 0.03 0.03 0.03 0.03 0.03 0.03 0.03 0.03 0.03 0.03 0.03 0.03 0.03 0.03 0.03 0.03 0.03 0.03 0.03 0.03 0.03 0.03 0.03 0.03 0.03 0.03 0.03 0.03 0.03 
0.04 0.04 0.04 0.04 0.04 0.04 0.04 0.04 0.04 0.04 0.04 0.04 0.04 0.04 0.04 0.04 0.04 0.04 0.04 0.04 0.04 0.04 0.04 0.04 0.04 0.04 0.04 0.04 0.04 0.04 0.04 0.04 0.04 0.04 0.04 0.04 0.04 0.04 0.04 0.04 
0.05 0.05 0.05 0.05 0.05 0.05 0.05 0.05 0.05 0.05 0.05 0.05 0.05 0.05 0.05 0.05 0.05 0.05 0.05 0.05 0.05 0.05 0.05 0.05 0.05 0.05 0.05 0.05 0.05 0.05 0.05 0.05 0.05 0.05 0.05 0.05 0.05 0.05 0.05 0.05 
0.06 0.06 0.06 0.06 0.06 0.06 0.06 0.06 0.06 0.06 0.06 0.06 0.06 0.06 0.06 0.06 0.06 0.06 0.06 0.06 0.06 0.06 0.06 0.06 0.06 0.06 0.06 0.06 0.06 0.06 0.06 0.06 0.06 0.06 0.06 0.06 0.06 0.06 0.06 0.06 
0.07 0.07 0.07 0.07 0.07 0.07 0.07 0.07 0.07 0.07 0.07 0.07 0.07 0.07 0.07 0.07 0.07 0.07 0.07 0.07 0.07 0.07 0.07 0.07 0.07 0.07 0.07 0.07 0.07 0.07 0.07 0.07 0.07 0.07 0.07 0.07 0.07 0.07 0.07 0.07 
0.2 0.2 0.2 0.2 0.2 0.2 0.2 0.2 0.2 0.2 0.2 0.2 0.2 0.2 0.2 0.2 0.2 0.2 0.2 0.2 0.2 0.2 0.2 0.2 0.2 0.2 0.2 0.2 0.2 0.2 0.2 0.2 0.2 0.2 0.2 0.2 0.2 0.2 0.2 0.2 
0.4 0.4 0.4 0.4 0.4 0.4 0.4 0.4 0.4 0.4 0.4 0.4 0.4 0.4 0.4 0.4 0.4 0.4 0.4 0.4 0.4 0.4 0.4 0.4 0.4 0.4 0.4 0.4 0.4 0.4 0.4 0.4 0.4 0.4 0.4 0.4 0.4 0.4 0.4 0.4 
0.6 0.6 0.6 0.6 0.6 0.6 0.6 0.6 0.6 0.6 0.6 0.6 0.6 0.6 0.6 0.6 0.6 0.6 0.6 0.6 0.6 0.6 0.6 0.6 0.6 0.6 0.6 0.6 0.6 0.6 0.6 0.6 0.6 0.6 0.6 0.6 0.6 0.6 0.6 0.6 
0.8 0.8 0.8 0.8 0.8 0.8 0.8 0.8 0.8 0.8 0.8 0.8 0.8 0.8 0.8 0.8 0.8 0.8 0.8 0.8 0.8 0.8 0.8 0.8 0.8 0.8 0.8 0.8 0.8 0.8 0.8 0.8 0.8 0.8 0.8 0.8 0.8 0.8 0.8 0.8 
1 1 1 1 1 1 1 1 1 1 1 1 1 1 1 1 1 1 1 1 1 1 1 1 1 1 1 1 1 1 1 1 1 1 1 1 1 1 1 1 
